52 18 46 47 36 49 64 63 90 32 10 62 11 19 48 83 60 5 99 96 94 53 
27 69 1 30 70 31 88 7 82 8 45 17 84 61 91 100 37 98 59 6 89 
2 57 15 41 22 75 56 23 67 39 4 55 25 54 24 29 34 78 81 33 50 
28 76 51 20 66 65 71 35 9 79 3 77 68 80 12 26 
95 97 92 93 85 16 86 38 44 14 43 42 87 13 73 74 72 21 40 58 
